\ This file was automatically generated by Zimpl
\ set Ti := {read "taskset.lst" as "<1n>" comment "#" };
\ do print Ti;
\ param Tr[Ti] := read "taskset.lst" as "<1n>2n" comment "#";
\ param Td[Ti] := read "taskset.lst" as "<1n>3n" comment "#";
\ param Te[Ti] := read "taskset.lst" as "<1n>4n" comment "#";
\ param p := read "period.dat" as "1n" use 1 comment "#";
\ var ts[<i> in Ti] integer >= 0 <= p;
\ var te[<i> in Ti] integer >= 0 <= p;
\ var sched[<i> in Ti] integer >= 0 <= p;
\ subto exe_time: forall <i> in Ti do      ts[i]+Te[i] == te[i];
\ subto start_time: forall <i> in Ti do      ts[i] >= Tr[i];
\ subto deadline_time: forall <i> in Ti do      te[i]<=Td[i];
\Problem name: scheduler.zpl
Minimize
 Objective: 
Subject to
 exe_time_1:
  - te#0 + ts#0 = -1
 exe_time_2:
  - te#1 + ts#1 = -2
 exe_time_3:
  - te#2 + ts#2 = -2
 exe_time_4:
  - te#3 + ts#3 = -4
 exe_time_5:
  - te#4 + ts#4 = -10
 exe_time_6:
  - te#5 + ts#5 = -1
 exe_time_7:
  - te#6 + ts#6 = -2
 exe_time_8:
  - te#7 + ts#7 = -5
 exe_time_9:
  - te#8 + ts#8 = -20
 exe_time_10:
  - te#9 + ts#9 = -3
 start_time_1:
  + ts#0 >= 2
 start_time_2:
  + ts#1 >= 2
 start_time_3:
  + ts#2 >= 4
 start_time_4:
  + ts#3 >= 10
 start_time_5:
  + ts#4 >= 15
 start_time_6:
  + ts#5 >= 40
 start_time_7:
  + ts#6 >= 15
 start_time_8:
  + ts#7 >= 36
 start_time_9:
  + ts#8 >= 0
 start_time_10:
  + ts#9 >= 40
 deadline_time_1:
  + te#0 <= 6
 deadline_time_2:
  + te#1 <= 8
 deadline_time_3:
  + te#2 <= 8
 deadline_time_4:
  + te#3 <= 20
 deadline_time_5:
  + te#4 <= 30
 deadline_time_6:
  + te#5 <= 50
 deadline_time_7:
  + te#6 <= 25
 deadline_time_8:
  + te#7 <= 60
 deadline_time_9:
  + te#8 <= 100
 deadline_time_10:
  + te#9 <= 51
Bounds
 0 <= ts#0 <= 200
 0 <= ts#1 <= 200
 0 <= ts#2 <= 200
 0 <= ts#3 <= 200
 0 <= ts#4 <= 200
 0 <= ts#5 <= 200
 0 <= ts#6 <= 200
 0 <= ts#7 <= 200
 0 <= ts#8 <= 200
 0 <= ts#9 <= 200
 0 <= te#0 <= 200
 0 <= te#1 <= 200
 0 <= te#2 <= 200
 0 <= te#3 <= 200
 0 <= te#4 <= 200
 0 <= te#5 <= 200
 0 <= te#6 <= 200
 0 <= te#7 <= 200
 0 <= te#8 <= 200
 0 <= te#9 <= 200
General
 ts#0
 ts#1
 ts#2
 ts#3
 ts#4
 ts#5
 ts#6
 ts#7
 ts#8
 ts#9
 te#0
 te#1
 te#2
 te#3
 te#4
 te#5
 te#6
 te#7
 te#8
 te#9
End
